9208 4377  0
9293 4470  1
9307 4460  1
9513 4631  1
9500 4636  1
9483 4654  3
9595 4771  4
9609 4769  4
9406 4584  4
9486 4637  5
9518 4627  5
9239 4404  6
9548 4614  7
9583 4726  8
9451 4599  10
9443 4620  10
9331 4503  11
9238 4392  12
9402 4554  13
9389 4560  14
9397 4572  15
9466 4640  16
9237 4343  17
9217 4360  17
9417 4594  18
9344 4520  19
9304 4465  19
9422 4587  20
9458 4566  21
9596 4766  22
9309 4487  23
9267 4442  24
9470 4615  25
9520 4694  26
9473 4640  27
9445 4615  28
9548 4683  29
9544 4718  29
9592 4732  30
9424 4575  31
9411 4583  32
9510 4676  33
9539 4712  34
9412 4587  35
9618 4747  36
9471 4641  37
9394 4550  39
9527 4703  40
9441 4611  41
9407 4560  42
